comp/2018/General_Track/CrCi/CrCy_10-sbox2-D5-sIn31.sl

(set-logic BV)


(define-fun origCir ( (LN7 Bool) (LN34 Bool) (LN56 Bool) (LN178 Bool)  )  Bool    
          (xor (xor (xor  LN7 LN34 ) LN56 ) LN178 )
)


(synth-fun skel ( (LN7 Bool) (LN34 Bool) (LN56 Bool) (LN178 Bool)  )  Bool    
          ((Start Bool (
		                                  (and depth1 depth1)
		                                  (not depth1)
		                                  (or depth1 depth1)
		                                  (xor depth1 depth1)
          ))
          (depth1 Bool (
		                                  (and depth2 depth2)
		                                  (not depth2)
		                                  (or depth2 depth2)
		                                  (xor depth2 depth2)
          ))
          (depth2 Bool (
		                                  (and depth3 depth3)
		                                  (not depth3)
		                                  (or depth3 depth3)
		                                  (xor depth3 depth3)
		                                  LN178
          ))
          (depth3 Bool (
		                                  (and depth4 depth4)
		                                  (not depth4)
		                                  (or depth4 depth4)
		                                  (xor depth4 depth4)
		                                  LN34
		                                  LN56
          ))
          (depth4 Bool (
		                                  LN7
          )))
)


(declare-var LN7 Bool)
(declare-var LN34 Bool)
(declare-var LN56 Bool)
(declare-var LN178 Bool)

(constraint (= (origCir LN7 LN34 LN56 LN178 ) (skel LN7 LN34 LN56 LN178 )))


(check-synth)

